RT is False
Default write of storage_offers_DA.csv just to have a file (but constraint should be inactive)
Reading model...
...model read.
creating competitive generators file...
...competitive generators recorded.
Loading data...
.. day-ahead data with real-time VRE data read.
Compiling instance...
...instance created.
Creating Offer Mitigation (model will solve as dispatch if TRUE)...
...storage offer mitigation file created
Converting model to MPEC...
...converted
NOTE: initial MIP solve with only storage competitive to get feasible solution
Solving...

Welcome to IBM(R) ILOG(R) CPLEX(R) Interactive Optimizer 12.9.0.0
  with Simplex, Mixed Integer & Barrier Optimizers
5725-A06 5725-A29 5724-Y48 5724-Y49 5724-Y54 5724-Y55 5655-Y21
Copyright IBM Corp. 1988, 2019.  All Rights Reserved.

Type 'help' for a list of available commands.
Type 'help' followed by a command name for more
information on commands.

CPLEX> Logfile 'cplex.log' closed.
Logfile 'C:\Users\llavin\Desktop\test826\logs\tmpteifawby.cplex.log' open.
CPLEX> New value for parallel optimization mode: -1
CPLEX> New value for mixed integer optimality gap tolerance: 0.1
CPLEX> New value for feasibility tolerance: 1e-09
CPLEX> New value for deterministic time limit in ticks: 10000
CPLEX> Problem 'C:\Users\llavin\Desktop\test826\logs\tmpc8qcumov.pyomo.lp' read.
Read time = 0.23 sec. (14.72 ticks)
CPLEX> Problem name         : C:\Users\llavin\Desktop\test826\logs\tmpc8qcumov.pyomo.lp
Objective sense      : Maximize
Variables            :   53805  [Nneg: 1,  Box: 22000,  Free: 4464,
                                 Binary: 27340]
Objective nonzeros   :    9029
Linear constraints   :  123205  [Less: 41346,  Greater: 59096,  Equal: 22763]
  Nonzeros           :  291753
  RHS nonzeros       :   67495

Variables            : Min LB: -5000.000        Max UB: 1000000.       
Objective nonzeros   : Min   : 0.07500000       Max   : 2500.000       
Linear constraints   :
  Nonzeros           : Min   : 0.07500000       Max   : 1000000.       
  RHS nonzeros       : Min   : 0.07500000       Max   : 1000000.       
CPLEX> CPXPARAM_Parallel                                -1
CPXPARAM_Simplex_Tolerances_Feasibility          1.0000000000000001e-09
CPXPARAM_DetTimeLimit                            10000
CPXPARAM_MIP_Tolerances_MIPGap                   0.10000000000000001
Tried aggregator 3 times.
MIP Presolve eliminated 88704 rows and 19028 columns.
MIP Presolve added 3372 rows and 0 columns.
MIP Presolve modified 24858 coefficients.
Aggregator did 12973 substitutions.
Reduced MIP has 24900 rows, 21248 columns, and 71032 nonzeros.
Reduced MIP has 8398 binaries, 0 generals, 0 SOSs, and 0 indicators.
Presolve time = 0.28 sec. (167.99 ticks)
Probing fixed 379 vars, tightened 4048 bounds.
Probing time = 0.06 sec. (19.04 ticks)
Tried aggregator 2 times.
MIP Presolve eliminated 853 rows and 759 columns.
MIP Presolve modified 3034 coefficients.
Aggregator did 35 substitutions.
Reduced MIP has 24012 rows, 20454 columns, and 68457 nonzeros.
Reduced MIP has 8019 binaries, 0 generals, 0 SOSs, and 0 indicators.
Presolve time = 0.13 sec. (89.14 ticks)
Probing fixed 0 vars, tightened 260 bounds.
Probing time = 0.14 sec. (22.12 ticks)
Clique table members: 44557.
MIP emphasis: balance optimality and feasibility.
MIP search method: dynamic search.
Parallel mode: opportunistic, using up to 32 threads.
Root relaxation solution time = 0.44 sec. (652.83 ticks)

        Nodes                                         Cuts/
   Node  Left     Objective  IInf  Best Integer    Best Bound    ItCnt     Gap

      0     0     3965.4494    64                   3965.4494     5590         
*     0+    0                         3964.3813     3965.4494             0.03%

Root node processing (before b&c):
  Real time             =    1.61 sec. (1259.20 ticks)
Parallel b&c, 32 threads:
  Real time             =    0.00 sec. (0.00 ticks)
  Sync time (average)   =    0.00 sec.
  Wait time (average)   =    0.00 sec.
                          ------------
Total (root+branch&cut) =    1.61 sec. (1259.20 ticks)

Solution pool: 1 solution saved.

MIP - Integer optimal, tolerance (0.1/1e-06):  Objective =  3.9643813170e+03
Current MIP best bound =  3.9654494451e+03 (gap = 1.06813, 0.03%)
Solution time =    1.63 sec.  Iterations = 5590  Nodes = 0 (1)
Deterministic time = 1259.35 ticks  (774.99 ticks/sec)

CPLEX> Incumbent solution written to file 'C:\Users\llavin\Desktop\test826\logs\tmpokoq4zje.cplex.sol'.
CPLEX> NOTE: no warmstart specified for MIP iteration, default behavior is true
NOTE: resolving with all competitive generators using storage-only solution to warmstart
Solving...

Welcome to IBM(R) ILOG(R) CPLEX(R) Interactive Optimizer 12.9.0.0
  with Simplex, Mixed Integer & Barrier Optimizers
5725-A06 5725-A29 5724-Y48 5724-Y49 5724-Y54 5724-Y55 5655-Y21
Copyright IBM Corp. 1988, 2019.  All Rights Reserved.

Type 'help' for a list of available commands.
Type 'help' followed by a command name for more
information on commands.

CPLEX> Logfile 'cplex.log' closed.
Logfile 'C:\Users\llavin\Desktop\test826\logs\tmp8dhw1sjl.cplex.log' open.
CPLEX> New value for parallel optimization mode: -1
CPLEX> New value for mixed integer optimality gap tolerance: 0.1
CPLEX> New value for feasibility tolerance: 1e-09
CPLEX> New value for deterministic time limit in ticks: 10000
CPLEX> Problem 'C:\Users\llavin\Desktop\test826\logs\tmpphc9u5vg.pyomo.lp' read.
Read time = 0.23 sec. (14.74 ticks)
CPLEX> MIP start file 'C:\Users\llavin\Desktop\test826\logs\tmprcy869m0.cplex.mst' read.
CPLEX> Problem name         : C:\Users\llavin\Desktop\test826\logs\tmpphc9u5vg.pyomo.lp
Objective sense      : Maximize
Variables            :   54525  [Nneg: 1,  Box: 22720,  Free: 4464,
                                 Binary: 27340]
Objective nonzeros   :    9725
Linear constraints   :  123205  [Less: 41346,  Greater: 59096,  Equal: 22763]
  Nonzeros           :  291753
  RHS nonzeros       :   67495

Variables            : Min LB: -5000.000        Max UB: 1000000.       
Objective nonzeros   : Min   : 0.07500000       Max   : 2500.000       
Linear constraints   :
  Nonzeros           : Min   : 0.07500000       Max   : 1000000.       
  RHS nonzeros       : Min   : 0.07500000       Max   : 1000000.       
CPLEX> CPXPARAM_Parallel                                -1
CPXPARAM_Simplex_Tolerances_Feasibility          1.0000000000000001e-09
CPXPARAM_DetTimeLimit                            10000
CPXPARAM_MIP_Tolerances_MIPGap                   0.10000000000000001
1 of 1 MIP starts provided solutions.
MIP start 'm1' defined initial solution with objective 62645.5039.
Tried aggregator 3 times.
MIP Presolve eliminated 88704 rows and 19748 columns.
MIP Presolve added 3372 rows and 0 columns.
MIP Presolve modified 24858 coefficients.
Aggregator did 12973 substitutions.
Reduced MIP has 24900 rows, 21248 columns, and 71032 nonzeros.
Reduced MIP has 8398 binaries, 0 generals, 0 SOSs, and 0 indicators.
Presolve time = 0.28 sec. (168.35 ticks)
Probing fixed 379 vars, tightened 4048 bounds.
Probing time = 0.09 sec. (19.04 ticks)
Tried aggregator 2 times.
MIP Presolve eliminated 853 rows and 759 columns.
MIP Presolve modified 3034 coefficients.
Aggregator did 35 substitutions.
Reduced MIP has 24012 rows, 20454 columns, and 68457 nonzeros.
Reduced MIP has 8019 binaries, 0 generals, 0 SOSs, and 0 indicators.
Presolve time = 0.11 sec. (89.15 ticks)
Probing fixed 0 vars, tightened 260 bounds.
Probing time = 0.13 sec. (22.12 ticks)
Clique table members: 44557.
MIP emphasis: balance optimality and feasibility.
MIP search method: dynamic search.
Parallel mode: opportunistic, using up to 32 threads.
Root relaxation solution time = 0.47 sec. (688.20 ticks)

        Nodes                                         Cuts/
   Node  Left     Objective  IInf  Best Integer    Best Bound    ItCnt     Gap

*     0+    0                        62645.5039   7.35473e+07              --- 
      0     0    82475.1342   233    62645.5039    82475.1342     5952   31.65%
      0     0    82093.8456    77    62645.5039     Cuts: 435     6097   31.05%
      0     0    82093.2087    75    62645.5039     Cuts: 170     6161   31.04%
      0     0    82093.2087    78    62645.5039     Cuts: 137     6188   31.04%
      0     0    82093.2087    46    62645.5039      Cuts: 52     6202   31.04%
      0     0    82093.2087    49    62645.5039      Cuts: 23     6220   31.04%
      0     2    82093.2087    47    62645.5039      Cuts: 13     6220   31.04%
Elapsed time = 5.86 sec. (2749.42 ticks, tree = 0.02 MB, solutions = 1)
    466   140        cutoff          62645.5039    82060.9039     7216   30.99%
   1057   389        cutoff          62645.5039    82060.9039    11553   30.99%
   1579   708        cutoff          62645.5039    82058.8187    17895   30.99%
   2310   952        cutoff          62645.5039    82058.8187    22907   30.99%
   3024  1102    65896.8840    26    62645.5039    82004.6696    25289   30.90%
   3689  1517        cutoff          62645.5039    81866.2034    31476   30.68%
   4391  2051    infeasible          62645.5039    81723.9324    44367   30.45%
   4970  1845        cutoff          62645.5039    81530.4616    49491   30.15%

Cover cuts applied:  2
Implied bound cuts applied:  15
Flow cuts applied:  74
Mixed integer rounding cuts applied:  11
Gomory fractional cuts applied:  30

Root node processing (before b&c):
  Real time             =    3.83 sec. (2692.36 ticks)
Parallel b&c, 32 threads:
  Real time             =   11.78 sec. (2064.44 ticks)
  Sync time (average)   =    1.05 sec.
  Wait time (average)   =    0.00 sec.
                          ------------
Total (root+branch&cut) =   15.61 sec. (4756.81 ticks)

Solution pool: 1 solution saved.

MIP - Integer optimal, tolerance (0.1/1e-06):  Objective =  6.2645503875e+04
Current MIP best bound =  6.8899118917e+04 (gap = 6253.62, 9.98%)
Solution time =   15.64 sec.  Iterations = 51015  Nodes = 5021 (1721)
Deterministic time = 4756.96 ticks  (304.13 ticks/sec)

CPLEX> Incumbent solution written to file 'C:\Users\llavin\Desktop\test826\logs\tmp2blbxf78.cplex.sol'.
CPLEX> Exporting results... 
62645.503874543465
